benchmarks_CP/INST_36x36/30/inst36x36_30_43.dzn
S=6;
start=[|
-1,	-1,	27,	-1,	-1,	-1,	-1,	22,	-1,	-1,	-1,	-1,	5,	-1,	-1,	3,	-1,	-1,	16,	-1,	-1,	-1,	32,	-1,	-1,	-1,	-1,	-1,	-1,	29,	26,	12,	2,	36,	-1,	24|
-1,	-1,	-1,	-1,	-1,	7,	-1,	31,	-1,	-1,	-1,	-1,	-1,	-1,	33,	-1,	32,	-1,	-1,	13,	-1,	11,	22,	-1,	-1,	-1,	-1,	35,	-1,	25,	-1,	-1,	-1,	-1,	-1,	-1|
-1,	-1,	-1,	-1,	31,	33,	-1,	-1,	-1,	-1,	16,	25,	-1,	-1,	-1,	-1,	-1,	22,	-1,	-1,	-1,	20,	23,	-1,	-1,	17,	-1,	21,	14,	-1,	-1,	-1,	-1,	19,	-1,	27|
4,	-1,	-1,	-1,	-1,	-1,	-1,	-1,	-1,	-1,	13,	15,	19,	-1,	-1,	-1,	-1,	-1,	29,	6,	-1,	-1,	-1,	-1,	-1,	31,	2,	-1,	-1,	-1,	-1,	-1,	10,	-1,	14,	-1|
14,	-1,	-1,	21,	-1,	-1,	-1,	-1,	28,	11,	-1,	23,	-1,	-1,	-1,	-1,	17,	-1,	3,	19,	-1,	-1,	-1,	8,	-1,	-1,	-1,	12,	-1,	-1,	20,	-1,	-1,	31,	9,	-1|
-1,	-1,	-1,	11,	-1,	2,	6,	-1,	-1,	-1,	-1,	14,	-1,	-1,	-1,	29,	31,	-1,	-1,	-1,	15,	-1,	-1,	-1,	-1,	-1,	24,	-1,	-1,	-1,	-1,	-1,	-1,	-1,	33,	-1|
-1,	-1,	4,	34,	-1,	-1,	-1,	-1,	35,	-1,	24,	-1,	-1,	9,	-1,	36,	-1,	-1,	27,	-1,	-1,	-1,	-1,	-1,	-1,	6,	25,	1,	-1,	-1,	-1,	-1,	7,	32,	-1,	-1|
3,	-1,	29,	19,	-1,	-1,	7,	-1,	-1,	-1,	-1,	27,	-1,	-1,	-1,	5,	30,	-1,	-1,	28,	-1,	32,	-1,	-1,	-1,	-1,	-1,	13,	15,	20,	-1,	-1,	-1,	-1,	-1,	-1|
-1,	-1,	-1,	-1,	28,	9,	-1,	-1,	-1,	16,	-1,	-1,	-1,	10,	4,	-1,	19,	-1,	-1,	-1,	-1,	-1,	-1,	-1,	-1,	-1,	27,	31,	-1,	-1,	13,	-1,	-1,	-1,	-1,	-1|
-1,	-1,	-1,	-1,	26,	-1,	-1,	-1,	-1,	-1,	-1,	-1,	-1,	-1,	-1,	-1,	-1,	-1,	-1,	-1,	-1,	-1,	18,	-1,	-1,	11,	-1,	7,	24,	-1,	-1,	2,	23,	-1,	-1,	-1|
6,	-1,	-1,	-1,	-1,	-1,	28,	5,	-1,	-1,	-1,	-1,	-1,	-1,	-1,	-1,	-1,	-1,	26,	-1,	-1,	14,	-1,	-1,	19,	-1,	29,	-1,	4,	-1,	-1,	33,	-1,	12,	-1,	-1|
-1,	8,	-1,	2,	-1,	-1,	-1,	-1,	17,	31,	-1,	-1,	-1,	-1,	20,	21,	-1,	-1,	30,	5,	-1,	-1,	7,	-1,	-1,	-1,	-1,	36,	-1,	-1,	-1,	-1,	-1,	-1,	24,	-1|
-1,	-1,	-1,	-1,	-1,	-1,	27,	3,	18,	-1,	-1,	5,	-1,	7,	-1,	-1,	-1,	32,	-1,	-1,	-1,	23,	-1,	-1,	-1,	-1,	-1,	-1,	-1,	-1,	-1,	-1,	26,	1,	-1,	-1|
-1,	35,	-1,	28,	-1,	-1,	-1,	-1,	33,	-1,	29,	-1,	12,	-1,	16,	20,	-1,	-1,	-1,	17,	19,	-1,	-1,	-1,	15,	-1,	22,	10,	3,	7,	21,	-1,	36,	-1,	-1,	32|
-1,	-1,	-1,	-1,	27,	-1,	-1,	24,	-1,	-1,	-1,	21,	-1,	-1,	-1,	-1,	-1,	-1,	-1,	35,	-1,	-1,	-1,	-1,	-1,	-1,	-1,	-1,	-1,	-1,	-1,	-1,	3,	-1,	-1,	-1|
11,	33,	-1,	-1,	-1,	-1,	-1,	10,	-1,	-1,	-1,	-1,	18,	26,	-1,	13,	3,	-1,	-1,	31,	27,	-1,	-1,	-1,	-1,	29,	6,	-1,	9,	-1,	-1,	22,	-1,	-1,	19,	-1|
8,	-1,	-1,	3,	32,	-1,	-1,	-1,	-1,	-1,	12,	-1,	-1,	11,	-1,	-1,	25,	-1,	10,	-1,	-1,	22,	-1,	-1,	21,	-1,	26,	20,	-1,	-1,	-1,	-1,	29,	5,	-1,	28|
23,	36,	10,	-1,	-1,	-1,	-1,	-1,	11,	-1,	-1,	-1,	2,	-1,	-1,	-1,	14,	21,	-1,	-1,	3,	-1,	-1,	-1,	-1,	32,	-1,	-1,	-1,	-1,	-1,	6,	-1,	-1,	-1,	20|
-1,	-1,	-1,	33,	-1,	10,	-1,	-1,	-1,	-1,	-1,	-1,	-1,	-1,	-1,	19,	-1,	-1,	-1,	30,	-1,	-1,	-1,	-1,	-1,	21,	16,	-1,	-1,	28,	-1,	-1,	-1,	29,	-1,	-1|
36,	-1,	-1,	32,	-1,	30,	5,	-1,	-1,	-1,	14,	-1,	-1,	28,	-1,	-1,	13,	7,	-1,	-1,	-1,	2,	-1,	-1,	-1,	-1,	31,	24,	26,	-1,	-1,	-1,	-1,	-1,	-1,	18|
-1,	16,	-1,	-1,	29,	-1,	20,	-1,	27,	-1,	26,	-1,	22,	-1,	-1,	8,	-1,	-1,	23,	-1,	-1,	-1,	28,	3,	-1,	25,	14,	-1,	2,	-1,	-1,	-1,	-1,	10,	1,	33|
-1,	-1,	-1,	-1,	-1,	-1,	36,	11,	-1,	-1,	-1,	-1,	-1,	-1,	2,	-1,	9,	-1,	-1,	-1,	-1,	-1,	27,	-1,	35,	-1,	-1,	-1,	-1,	-1,	34,	14,	-1,	25,	7,	-1|
-1,	-1,	15,	35,	-1,	-1,	-1,	-1,	-1,	-1,	23,	-1,	6,	-1,	11,	18,	-1,	-1,	-1,	-1,	-1,	13,	-1,	-1,	-1,	-1,	-1,	17,	5,	-1,	9,	26,	-1,	-1,	-1,	-1|
-1,	34,	-1,	23,	3,	-1,	-1,	30,	-1,	-1,	-1,	13,	29,	-1,	-1,	-1,	-1,	-1,	-1,	14,	20,	26,	4,	25,	-1,	-1,	-1,	-1,	-1,	10,	36,	-1,	-1,	-1,	2,	-1|
27,	-1,	-1,	-1,	-1,	-1,	-1,	-1,	9,	-1,	-1,	-1,	-1,	-1,	-1,	-1,	-1,	-1,	-1,	-1,	-1,	-1,	16,	-1,	17,	-1,	-1,	-1,	-1,	-1,	12,	-1,	-1,	11,	36,	6|
2,	28,	34,	29,	-1,	-1,	-1,	-1,	-1,	-1,	36,	-1,	20,	-1,	-1,	-1,	-1,	-1,	-1,	12,	-1,	-1,	-1,	10,	-1,	-1,	-1,	-1,	-1,	-1,	-1,	-1,	32,	-1,	-1,	-1|
5,	-1,	-1,	24,	-1,	-1,	-1,	-1,	-1,	-1,	-1,	-1,	-1,	13,	23,	15,	1,	-1,	-1,	32,	-1,	-1,	-1,	-1,	-1,	-1,	-1,	-1,	29,	-1,	-1,	10,	33,	-1,	-1,	-1|
-1,	-1,	19,	-1,	-1,	32,	23,	35,	-1,	-1,	-1,	-1,	-1,	24,	29,	-1,	-1,	2,	-1,	27,	-1,	-1,	-1,	-1,	-1,	36,	-1,	-1,	16,	-1,	-1,	-1,	-1,	-1,	-1,	-1|
-1,	-1,	-1,	-1,	11,	-1,	-1,	-1,	10,	-1,	-1,	-1,	-1,	-1,	-1,	-1,	-1,	9,	-1,	-1,	-1,	21,	-1,	30,	-1,	-1,	-1,	-1,	-1,	15,	-1,	-1,	-1,	-1,	-1,	-1|
16,	23,	-1,	-1,	-1,	36,	-1,	-1,	-1,	-1,	32,	-1,	21,	-1,	-1,	-1,	-1,	-1,	13,	-1,	34,	-1,	-1,	-1,	-1,	-1,	-1,	6,	-1,	24,	-1,	-1,	-1,	26,	-1,	-1|
33,	-1,	-1,	-1,	9,	-1,	4,	-1,	13,	-1,	-1,	32,	36,	-1,	-1,	-1,	-1,	10,	-1,	16,	12,	30,	-1,	-1,	-1,	27,	-1,	-1,	-1,	26,	-1,	-1,	-1,	-1,	-1,	34|
-1,	32,	-1,	36,	16,	8,	-1,	9,	-1,	-1,	25,	-1,	-1,	-1,	27,	-1,	26,	-1,	-1,	-1,	-1,	-1,	-1,	-1,	10,	-1,	-1,	23,	20,	-1,	-1,	21,	18,	-1,	29,	-1|
-1,	13,	-1,	-1,	4,	-1,	-1,	-1,	-1,	5,	-1,	-1,	-1,	-1,	22,	-1,	-1,	-1,	-1,	-1,	11,	-1,	-1,	-1,	-1,	-1,	-1,	-1,	-1,	-1,	-1,	-1,	9,	-1,	-1,	-1|
-1,	-1,	-1,	-1,	2,	15,	-1,	8,	-1,	29,	-1,	20,	-1,	-1,	-1,	-1,	-1,	-1,	-1,	-1,	21,	7,	19,	-1,	24,	-1,	-1,	5,	-1,	36,	10,	-1,	-1,	-1,	-1,	-1|
12,	29,	-1,	-1,	-1,	-1,	24,	27,	-1,	10,	-1,	-1,	-1,	-1,	21,	-1,	-1,	-1,	34,	-1,	-1,	15,	-1,	-1,	13,	-1,	7,	-1,	-1,	11,	-1,	32,	-1,	-1,	-1,	-1|
-1,	-1,	26,	-1,	-1,	-1,	-1,	-1,	23,	-1,	1,	-1,	11,	19,	13,	-1,	-1,	-1,	-1,	29,	-1,	-1,	-1,	-1,	-1,	-1,	33,	16,	-1,	-1,	-1,	-1,	-1,	-1,	8,	-1|];
